TOUR_SECTION
171
69
5
155
94
188
109
19
90
63
125
34
168
49
108
39
130
180
67
13
147
87
145
46
3
198
36
183
4
141
41
104
31
68
83
132
102
149
50
74
173
162
52
76
79
121
119
43
61
140
200
143
95
193
86
144
164
133
179
138
158
101
139
157
80
196
65
38
174
56
44
37
85
6
126
9
167
62
114
176
153
184
53
118
116
175
112
192
82
15
151
129
91
2
99
191
78
77
194
146
60
186
120
124
48
106
30
84
127
57
70
40
148
182
172
177
199
11
21
178
81
14
122
134
27
75
59
20
123
189
45
51
72
113
181
28
96
110
105
42
187
92
100
128
24
163
71
165
73
103
152
26
97
89
29
107
185
197
10
25
160
159
64
88
142
111
18
23
135
195
12
1
170
154
32
66
98
7
169
161
22
58
156
115
35
93
131
8
47
137
33
17
166
117
54
136
150
190
16
55
-1
EOF